#######################
Slurm job id: 17497813_353
Running on machine: p31
Running cmd: /nfs/shared/static-builds/gurobi1202 SOFTMEMLIMIT=125 TimeLimit=300 seed=2 /nfs/models/miplib2010/k16x240.mps.bz2
#######################
Set parameter TimeLimit to value 300
Set parameter SoftMemLimit to value 125
Set parameter LogFile to value 1202-TimeLimit300-k16x240-2.log
Set parameter Seed to value 2
Using license file /opt/gurobi/gurobi.lic

Gurobi Optimizer version 12.0.2 build v12.0.2rc0 (linux64 - "Ubuntu 22.04.4 LTS")
Copyright (c) 2025, Gurobi Optimization, LLC

Read MPS format model from file /nfs/models/miplib2010/k16x240.mps.bz2
Reading time = 0.00 seconds
k16x240: 256 rows, 480 columns, 960 nonzeros

Using Gurobi shared library /nfs/shared/static-builds/gurobi1202

CPU model: Intel(R) Xeon(R) E-2388G CPU @ 3.20GHz, instruction set [SSE2|AVX|AVX2|AVX512]
Thread count: 8 physical cores, 16 logical processors, using up to 16 threads

Non-default parameters:
TimeLimit  300
SoftMemLimit  125
Seed  2

Optimize a model with 256 rows, 480 columns and 960 nonzeros
Model fingerprint: 0x4e80885f
Variable types: 240 continuous, 240 integer (240 binary)
Coefficient statistics:
  Matrix range     [1e+00, 1e+03]
  Objective range  [1e+00, 1e+03]
  Bounds range     [1e+00, 1e+03]
  RHS range        [4e+00, 4e+02]
Found heuristic solution: objective 20929.000000
Presolve time: 0.00s
Presolved: 256 rows, 480 columns, 960 nonzeros
Variable types: 240 continuous, 240 integer (240 binary)

Root relaxation: objective 2.769838e+03, 51 iterations, 0.00 seconds (0.00 work units)

    Nodes    |    Current Node    |     Objective Bounds      |     Work
 Expl Unexpl |  Obj  Depth IntInf | Incumbent    BestBd   Gap | It/Node Time

     0     0 2769.83800    0   14 20929.0000 2769.83800  86.8%     -    0s
H    0     0                    11359.000000 2769.83800  75.6%     -    0s
H    0     0                    11195.000000 2769.83800  75.3%     -    0s
H    0     0                    11088.000000 2769.83800  75.0%     -    0s
H    0     0                    11074.000000 8084.69631  27.0%     -    0s
     0     0 8084.69631    0   26 11074.0000 8084.69631  27.0%     -    0s
H    0     0                    10916.000000 8126.71248  25.6%     -    0s
     0     0 8528.16906    0   24 10916.0000 8528.16906  21.9%     -    0s
     0     0 8539.49533    0   34 10916.0000 8539.49533  21.8%     -    0s
H    0     0                    10806.000000 8548.03675  20.9%     -    0s
     0     0 8548.03675    0   29 10806.0000 8548.03675  20.9%     -    0s
     0     0 8739.20556    0   38 10806.0000 8739.20556  19.1%     -    0s
H    0     0                    10801.000000 8745.55182  19.0%     -    0s
H    0     0                    10784.000000 8745.55182  18.9%     -    0s
H    0     0                    10717.000000 8745.55182  18.4%     -    0s
     0     0 8805.66840    0   29 10717.0000 8805.66840  17.8%     -    0s
     0     0 8815.00598    0   31 10717.0000 8815.00598  17.7%     -    0s
     0     0 8817.96662    0   29 10717.0000 8817.96662  17.7%     -    0s
     0     0 9010.30225    0   42 10717.0000 9010.30225  15.9%     -    0s
     0     0 9030.22791    0   44 10717.0000 9030.22791  15.7%     -    0s
     0     0 9033.68401    0   48 10717.0000 9033.68401  15.7%     -    0s
     0     0 9061.74840    0   27 10717.0000 9061.74840  15.4%     -    0s
     0     0 9078.34457    0   32 10717.0000 9078.34457  15.3%     -    0s
     0     0 9083.16892    0   32 10717.0000 9083.16892  15.2%     -    0s
     0     0 9120.97677    0   34 10717.0000 9120.97677  14.9%     -    0s
     0     0 9121.24159    0   34 10717.0000 9121.24159  14.9%     -    0s
     0     2 9121.24159    0   34 10717.0000 9121.24159  14.9%     -    0s
H   37    60                    10681.000000 9170.51427  14.1%  33.2    0s
H   52    60                    10678.000000 9170.51427  14.1%  29.5    0s
H 2086  1253                    10674.000000 9471.49889  11.3%  17.6    0s
 36153 12230 10436.0036   41    6 10674.0000 10066.8783  5.69%  25.4    5s
 76447 15707     cutoff   25      10674.0000 10266.1368  3.82%  26.4   10s
 118072  7860     cutoff   36      10674.0000 10449.7709  2.10%  26.0   15s

Cutting planes:
  Lift-and-project: 23
  Cover: 72
  Implied bound: 30
  Dual implied bound: 33
  MIR: 171
  Flow cover: 299
  Flow path: 41
  Inf proof: 3
  Zero half: 9
  Network: 56
  Relax-and-lift: 1

Explored 132477 nodes (3306383 simplex iterations) in 16.18 seconds (21.45 work units)
Thread count was 16 (of 16 available processors)

Solution count 10: 10674 10678 10681 ... 11088

Optimal solution found (tolerance 1.00e-04)
Best objective 1.067400000000e+04, best bound 1.067400000000e+04, gap 0.0000%
